p cnf 894
-24 -238
-25 -241
-26 -244
-27 -247
-28 -250
-29 -253
-30 -256
-31 -259
-32 -262
-33 -265
-34 -268
-35 -271
-36 -274
-37 -277
-38 -280
-39 -283
-40 -286
-41 -289
-42 -292
-43 -295
-44 -298
-45 -301
-46 -304
-47 -306
-48 -308
-49 -310
-50 -312
-51 -314
-52 -316
-53 -318
-54 -320
-55 -322
-56 -324
-57 -326
-58 -328
-59 -330
-60 -332
-61 -334
-62 -336
-63 -338
-64 -340
-65 -342
-66 -344
-67 -346
-68 -348
-69 -350
-70 351
-71 -41
-71 46
41 -46 71
-72 41
-72 -46
-41 46 72
-73 -71
-73 -72
71 72 73
-74 -1
-74 -2
1 2 74
-75 -3
-75 -4
3 4 75
-76 -5
-76 -6
5 6 76
-77 -7
-77 -8
7 8 77
-78 -9
-78 -10
9 10 78
-79 -11
-79 -12
11 12 79
-80 -13
-80 -14
13 14 80
-81 -15
-81 -16
15 16 81
-82 -17
-82 -18
17 18 82
-83 -19
-83 -20
19 20 83
-84 -21
-84 -22
21 22 84
-85 74
-85 75
-74 -75 85
-86 76
-86 77
-76 -77 86
-87 78
-87 79
-78 -79 87
-88 80
-88 81
-80 -81 88
-89 82
-89 83
-82 -83 89
-90 -23
-90 84
23 -84 90
-91 85
-91 86
-85 -86 91
-92 87
-92 88
-87 -88 92
-93 89
-93 90
-89 -90 93
-94 91
-94 92
-91 -92 94
-95 93
-95 94
-93 -94 95
-96 -47
-96 -48
47 48 96
-97 -49
-97 -50
49 50 97
-98 -51
-98 -52
51 52 98
-99 -53
-99 -54
53 54 99
-100 -55
-100 -56
55 56 100
-101 -57
-101 -58
57 58 101
-102 -59
-102 -60
59 60 102
-103 -61
-103 -62
61 62 103
-104 -63
-104 -64
63 64 104
-105 -65
-105 -66
65 66 105
-106 -67
-106 -68
67 68 106
-107 96
-107 97
-96 -97 107
-108 98
-108 99
-98 -99 108
-109 100
-109 101
-100 -101 109
-110 102
-110 103
-102 -103 110
-111 104
-111 105
-104 -105 111
-112 -69
-112 106
69 -106 112
-113 107
-113 108
-107 -108 113
-114 109
-114 110
-109 -110 114
-115 111
-115 112
-111 -112 115
-116 113
-116 114
-113 -114 116
-117 115
-117 116
-115 -116 117
-118 47
-118 -73
-47 73 118
-119 -47
-119 73
47 -73 119
-120 -118
-120 -119
118 119 120
-121 24
-121 48
-24 -48 121
-122 -24
-122 -48
24 48 122
-123 -121
-123 -122
121 122 123
-124 25
-124 49
-25 -49 124
-125 -25
-125 -49
25 49 125
-126 -124
-126 -125
124 125 126
-127 26
-127 50
-26 -50 127
-128 -26
-128 -50
26 50 128
-129 -127
-129 -128
127 128 129
-130 27
-130 51
-27 -51 130
-131 -27
-131 -51
27 51 131
-132 -130
-132 -131
130 131 132
-133 28
-133 52
-28 -52 133
-134 -28
-134 -52
28 52 134
-135 -133
-135 -134
133 134 135
-136 29
-136 53
-29 -53 136
-137 -29
-137 -53
29 53 137
-138 -136
-138 -137
136 137 138
-139 30
-139 54
-30 -54 139
-140 -30
-140 -54
30 54 140
-141 -139
-141 -140
139 140 141
-142 31
-142 55
-31 -55 142
-143 -31
-143 -55
31 55 143
-144 -142
-144 -143
142 143 144
-145 32
-145 56
-32 -56 145
-146 -32
-146 -56
32 56 146
-147 -145
-147 -146
145 146 147
-148 33
-148 57
-33 -57 148
-149 -33
-149 -57
33 57 149
-150 -148
-150 -149
148 149 150
-151 34
-151 58
-34 -58 151
-152 -34
-152 -58
34 58 152
-153 -151
-153 -152
151 152 153
-154 35
-154 59
-35 -59 154
-155 -35
-155 -59
35 59 155
-156 -154
-156 -155
154 155 156
-157 36
-157 60
-36 -60 157
-158 -36
-158 -60
36 60 158
-159 -157
-159 -158
157 158 159
-160 37
-160 61
-37 -61 160
-161 -37
-161 -61
37 61 161
-162 -160
-162 -161
160 161 162
-163 38
-163 62
-38 -62 163
-164 -38
-164 -62
38 62 164
-165 -163
-165 -164
163 164 165
-166 39
-166 63
-39 -63 166
-167 -39
-167 -63
39 63 167
-168 -166
-168 -167
166 167 168
-169 40
-169 64
-40 -64 169
-170 -40
-170 -64
40 64 170
-171 -169
-171 -170
169 170 171
-172 41
-172 65
-41 -65 172
-173 -41
-173 -65
41 65 173
-174 -172
-174 -173
172 173 174
-175 42
-175 66
-42 -66 175
-176 -42
-176 -66
42 66 176
-177 -175
-177 -176
175 176 177
-178 43
-178 67
-43 -67 178
-179 -43
-179 -67
43 67 179
-180 -178
-180 -179
178 179 180
-181 44
-181 68
-44 -68 181
-182 -44
-182 -68
44 68 182
-183 -181
-183 -182
181 182 183
-184 45
-184 69
-45 -69 184
-185 -45
-185 -69
45 69 185
-186 -184
-186 -185
184 185 186
-187 -120
-187 -123
120 123 187
-188 -126
-188 -129
126 129 188
-189 -132
-189 -135
132 135 189
-190 -138
-190 -141
138 141 190
-191 -144
-191 -147
144 147 191
-192 -150
-192 -153
150 153 192
-193 -156
-193 -159
156 159 193
-194 -162
-194 -165
162 165 194
-195 -168
-195 -171
168 171 195
-196 -174
-196 -177
174 177 196
-197 -180
-197 -183
180 183 197
-198 187
-198 188
-187 -188 198
-199 189
-199 190
-189 -190 199
-200 191
-200 192
-191 -192 200
-201 193
-201 194
-193 -194 201
-202 195
-202 196
-195 -196 202
-203 -186
-203 197
186 -197 203
-204 198
-204 199
-198 -199 204
-205 200
-205 201
-200 -201 205
-206 202
-206 203
-202 -203 206
-207 204
-207 205
-204 -205 207
-208 206
-208 207
-206 -207 208
-209 -117
-209 208
117 -208 209
-210 70
-210 209
-70 -209 210
-211 95
-211 210
-95 -210 211
-212 -24
-212 73
24 -73 212
-213 -25
-213 -26
25 26 213
-214 -27
-214 -28
27 28 214
-215 -29
-215 -30
29 30 215
-216 -31
-216 -32
31 32 216
-217 -33
-217 -34
33 34 217
-218 -35
-218 -36
35 36 218
-219 -37
-219 -38
37 38 219
-220 -39
-220 -40
39 40 220
-221 -41
-221 -42
41 42 221
-222 -43
-222 -44
43 44 222
-223 212
-223 213
-212 -213 223
-224 214
-224 215
-214 -215 224
-225 216
-225 217
-216 -217 225
-226 218
-226 219
-218 -219 226
-227 220
-227 221
-220 -221 227
-228 -45
-228 222
45 -222 228
-229 223
-229 224
-223 -224 229
-230 225
-230 226
-225 -226 230
-231 227
-231 228
-227 -228 231
-232 229
-232 230
-229 -230 232
-233 231
-233 232
-231 -232 233
-234 -117
-234 233
117 -233 234
-235 95
-235 -209
-95 209 235
-236 1
-236 -95
-1 95 236
-237 -73
-237 95
73 -95 237
-238 -236
-238 -237
236 237 238
-239 2
-239 -95
-2 95 239
-240 24
-240 95
-24 -95 240
-241 -239
-241 -240
239 240 241
-242 3
-242 -95
-3 95 242
-243 25
-243 95
-25 -95 243
-244 -242
-244 -243
242 243 244
-245 4
-245 -95
-4 95 245
-246 26
-246 95
-26 -95 246
-247 -245
-247 -246
245 246 247
-248 5
-248 -95
-5 95 248
-249 27
-249 95
-27 -95 249
-250 -248
-250 -249
248 249 250
-251 6
-251 -95
-6 95 251
-252 28
-252 95
-28 -95 252
-253 -251
-253 -252
251 252 253
-254 7
-254 -95
-7 95 254
-255 29
-255 95
-29 -95 255
-256 -254
-256 -255
254 255 256
-257 8
-257 -95
-8 95 257
-258 30
-258 95
-30 -95 258
-259 -257
-259 -258
257 258 259
-260 9
-260 -95
-9 95 260
-261 31
-261 95
-31 -95 261
-262 -260
-262 -261
260 261 262
-263 10
-263 -95
-10 95 263
-264 32
-264 95
-32 -95 264
-265 -263
-265 -264
263 264 265
-266 11
-266 -95
-11 95 266
-267 33
-267 95
-33 -95 267
-268 -266
-268 -267
266 267 268
-269 12
-269 -95
-12 95 269
-270 34
-270 95
-34 -95 270
-271 -269
-271 -270
269 270 271
-272 13
-272 -95
-13 95 272
-273 35
-273 95
-35 -95 273
-274 -272
-274 -273
272 273 274
-275 14
-275 -95
-14 95 275
-276 36
-276 95
-36 -95 276
-277 -275
-277 -276
275 276 277
-278 15
-278 -95
-15 95 278
-279 37
-279 95
-37 -95 279
-280 -278
-280 -279
278 279 280
-281 16
-281 -95
-16 95 281
-282 38
-282 95
-38 -95 282
-283 -281
-283 -282
281 282 283
-284 17
-284 -95
-17 95 284
-285 39
-285 95
-39 -95 285
-286 -284
-286 -285
284 285 286
-287 18
-287 -95
-18 95 287
-288 40
-288 95
-40 -95 288
-289 -287
-289 -288
287 288 289
-290 19
-290 -95
-19 95 290
-291 41
-291 95
-41 -95 291
-292 -290
-292 -291
290 291 292
-293 20
-293 -95
-20 95 293
-294 42
-294 95
-42 -95 294
-295 -293
-295 -294
293 294 295
-296 21
-296 -95
-21 95 296
-297 43
-297 95
-43 -95 297
-298 -296
-298 -297
296 297 298
-299 22
-299 -95
-22 95 299
-300 44
-300 95
-44 -95 300
-301 -299
-301 -300
299 300 301
-302 23
-302 -95
-23 95 302
-303 45
-303 95
-45 -95 303
-304 -302
-304 -303
302 303 304
-305 47
-305 95
-47 -95 305
-306 -236
-306 -305
236 305 306
-307 48
-307 95
-48 -95 307
-308 -239
-308 -307
239 307 308
-309 49
-309 95
-49 -95 309
-310 -242
-310 -309
242 309 310
-311 50
-311 95
-50 -95 311
-312 -245
-312 -311
245 311 312
-313 51
-313 95
-51 -95 313
-314 -248
-314 -313
248 313 314
-315 52
-315 95
-52 -95 315
-316 -251
-316 -315
251 315 316
-317 53
-317 95
-53 -95 317
-318 -254
-318 -317
254 317 318
-319 54
-319 95
-54 -95 319
-320 -257
-320 -319
257 319 320
-321 55
-321 95
-55 -95 321
-322 -260
-322 -321
260 321 322
-323 56
-323 95
-56 -95 323
-324 -263
-324 -323
263 323 324
-325 57
-325 95
-57 -95 325
-326 -266
-326 -325
266 325 326
-327 58
-327 95
-58 -95 327
-328 -269
-328 -327
269 327 328
-329 59
-329 95
-59 -95 329
-330 -272
-330 -329
272 329 330
-331 60
-331 95
-60 -95 331
-332 -275
-332 -331
275 331 332
-333 61
-333 95
-61 -95 333
-334 -278
-334 -333
278 333 334
-335 62
-335 95
-62 -95 335
-336 -281
-336 -335
281 335 336
-337 63
-337 95
-63 -95 337
-338 -284
-338 -337
284 337 338
-339 64
-339 95
-64 -95 339
-340 -287
-340 -339
287 339 340
-341 65
-341 95
-65 -95 341
-342 -290
-342 -341
290 341 342
-343 66
-343 95
-66 -95 343
-344 -293
-344 -343
293 343 344
-345 67
-345 95
-67 -95 345
-346 -296
-346 -345
296 345 346
-347 68
-347 95
-68 -95 347
-348 -299
-348 -347
299 347 348
-349 69
-349 95
-69 -95 349
-350 -302
-350 -349
302 349 350
-351 -70
-351 235
70 -235 351
-352 -211
-352 -234
211 234 352
-352
